data;

set A := 358779 816057 326411 951159 588822 836372 529227 296616 642587 908853 978869 294770 87449 605619 875547 355446 476662 94028 525131 559585 367029 953451 602057 689899 595119 514915 672663 3285 616283 998835 489456 314920 595271 227009 658694 600954 850718 684769 993480 729129 587425 758990 454304 211871 829936 120237 600430 690126 601729 521678 875856 102835 732388 254636 720476 345174 509959 417706 12834 557893 212717 278869 342892 245405 971383 430054 405886 523651 272797 201087 4248 115941;
param T := 18000000;

end;
